NAME example_2
ROWS
 N total_profit
 L capacity
COLUMNS
 production[A] total_profit 50
 production[A] capacity 1
 production[B] total_profit 30
 production[B] capacity 1
 production[C] total_profit 40
 production[C] capacity 1
RHS
 RHS1 capacity 1000
ENDATA
